424 5
10 10 10 10 10 

0 0 0 0 0 0 5 2 14 26 38 50 
0 0 0 0 0 0 5 3 4 6 11 12 
3 1 0 0 0 0 2 10 9 
6 2 0 0 0 0 1 5 
6 2 0 0 0 0 1 7 
4 5 0 0 0 0 1 8 
7 5 0 0 0 0 2 13 374 
8 2 0 0 0 0 1 13 
3 1 0 0 0 0 1 13 
5 2 0 0 0 0 1 13 
6 3 0 0 0 0 1 13 
2 2 0 0 0 0 1 13 
0 0 0 0 0 0 1 62 
0 0 0 0 0 0 6 15 16 19 20 23 24 
1 1 0 0 0 0 2 22 18 
7 4 0 0 0 0 2 17 89 
9 2 0 0 0 0 1 21 
5 3 0 0 0 0 1 21 
3 2 0 0 0 0 1 21 
3 1 0 0 0 0 1 21 
3 6 0 0 0 0 1 25 
6 2 0 0 0 0 1 25 
3 3 0 0 0 0 1 25 
2 1 0 0 0 0 1 25 
0 0 0 0 0 0 1 62 
0 0 0 0 0 0 4 27 28 29 31 
4 0 0 0 1 0 5 36 35 34 33 32 
4 0 0 0 2 0 3 36 34 30 
8 0 0 0 2 0 2 35 30 
8 0 0 0 4 0 2 33 32 
6 0 0 0 2 0 3 34 32 229 
7 0 0 0 1 0 1 37 
8 0 0 0 2 0 1 37 
8 0 0 0 3 0 1 37 
5 0 0 0 4 0 1 37 
2 0 0 0 4 0 1 37 
0 0 0 0 0 0 1 62 
0 0 0 0 0 0 4 39 40 41 182 
1 0 0 0 0 1 6 48 47 46 45 43 42 
10 0 0 0 0 2 4 48 47 44 43 
3 0 0 0 0 2 3 46 45 43 
2 0 0 0 0 1 1 44 
6 0 0 0 0 6 1 49 
9 0 0 0 0 3 1 49 
9 0 0 0 0 3 1 49 
5 0 0 0 0 2 1 49 
1 0 0 0 0 4 1 49 
5 0 0 0 0 1 1 49 
0 0 0 0 0 0 1 62 
0 0 0 0 0 0 6 51 52 53 54 55 57 
3 0 0 0 0 1 3 60 58 56 
1 0 0 0 0 3 3 60 58 56 
10 0 0 0 0 2 3 60 58 56 
3 0 0 0 0 4 3 60 58 56 
8 0 0 0 0 1 2 59 58 
7 0 0 0 0 2 1 59 
6 0 0 0 0 3 1 58 
10 0 0 0 0 4 1 61 
10 0 0 0 0 1 2 61 265 
6 0 0 0 0 4 1 61 
0 0 0 0 0 0 1 62 
0 0 0 0 0 0 5 63 75 87 99 111 
0 0 0 0 0 0 5 64 65 66 67 68 
3 0 0 1 0 0 3 71 70 69 
6 0 0 2 0 0 3 73 71 70 
7 0 0 4 0 0 2 71 69 
1 0 0 2 0 0 2 73 70 
9 0 0 3 0 0 2 69 343 
1 0 0 4 0 0 2 73 72 
5 0 0 3 0 0 1 72 
2 0 0 2 0 0 1 72 
7 0 0 1 0 0 1 74 
10 0 0 3 0 0 1 74 
0 0 0 0 0 0 1 123 
0 0 0 0 0 0 5 76 77 78 79 85 
5 0 0 0 1 0 4 84 83 82 81 
8 0 0 0 2 0 3 83 82 80 
9 0 0 0 3 0 3 83 82 81 
4 0 0 0 5 0 3 83 82 81 
10 0 0 0 2 0 1 81 
3 0 0 0 2 0 1 86 
7 0 0 0 1 0 1 86 
9 0 0 0 3 0 2 86 235 
5 0 0 0 1 0 1 86 
7 0 0 0 5 0 1 86 
0 0 0 0 0 0 1 123 
0 0 0 0 0 0 4 88 90 91 291 
5 0 1 0 0 0 3 95 92 89 
1 0 3 0 0 0 4 97 96 94 93 
1 0 3 0 0 0 2 95 93 
9 0 2 0 0 0 2 94 93 
6 0 3 0 0 0 1 93 
6 0 4 0 0 0 1 98 
8 0 2 0 0 0 1 98 
9 0 2 0 0 0 1 98 
6 0 3 0 0 0 1 98 
2 0 2 0 0 0 1 98 
0 0 0 0 0 0 1 123 
0 0 0 0 0 0 7 100 102 103 104 107 108 109 
1 0 0 1 0 0 1 101 
9 0 0 2 0 0 2 106 105 
3 0 0 7 0 0 1 105 
7 0 0 3 0 0 1 105 
9 0 0 2 0 0 1 105 
3 0 0 3 0 0 1 110 
5 0 0 2 0 0 2 110 139 
1 0 0 2 0 0 1 110 
4 0 0 2 0 0 1 110 
6 0 0 1 0 0 1 110 
0 0 0 0 0 0 1 123 
0 0 0 0 0 0 4 112 113 120 121 
6 1 0 0 0 0 4 119 117 115 114 
2 2 0 0 0 0 2 117 114 
9 3 0 0 0 0 1 116 
9 4 0 0 0 0 1 118 
4 1 0 0 0 0 1 122 
4 4 0 0 0 0 1 122 
2 3 0 0 0 0 2 122 158 
7 1 0 0 0 0 1 122 
2 3 0 0 0 0 1 122 
5 3 0 0 0 0 1 122 
0 0 0 0 0 0 1 123 
0 0 0 0 0 0 5 124 156 188 220 232 
0 0 0 0 0 0 6 125 126 127 128 129 132 
8 1 0 1 0 1 5 142 140 133 131 130 
2 2 0 4 0 3 4 142 139 133 130 
6 2 0 1 0 2 4 140 139 133 130 
6 4 0 1 0 3 3 142 131 130 
2 4 0 3 0 3 2 142 131 
7 1 0 1 0 3 4 138 137 136 134 
4 2 0 3 0 2 5 144 143 139 138 137 
7 3 0 2 0 1 3 144 143 137 
8 3 0 4 0 2 2 135 329 
10 4 0 1 0 5 3 144 143 141 
5 3 0 2 0 3 3 144 143 141 
2 1 0 3 0 4 2 143 141 
5 3 0 3 0 1 1 141 
4 2 0 4 0 1 1 141 
9 2 0 1 0 4 1 141 
8 3 0 5 0 2 1 141 
4 3 0 2 0 1 5 154 153 148 146 145 
5 1 0 2 0 2 2 148 143 
8 4 0 1 0 1 4 154 153 150 147 
6 3 0 4 0 2 2 153 145 
9 2 0 1 0 2 2 152 149 
7 2 0 2 0 3 1 147 
4 1 0 1 0 4 2 152 151 
1 3 0 5 0 1 2 152 151 
7 3 0 4 0 4 1 150 
3 4 0 3 0 4 1 151 
3 4 0 1 0 1 1 155 
7 2 0 2 0 4 1 155 
10 2 0 5 0 2 1 155 
1 1 0 3 0 4 1 155 
0 0 0 0 0 0 1 424 
0 0 0 0 0 0 6 157 158 159 160 163 186 
1 1 1 0 0 1 4 170 168 167 161 
4 3 3 0 0 2 4 170 164 162 161 
1 1 2 0 0 3 5 185 176 167 165 164 
5 2 2 0 0 2 5 181 177 176 167 165 
7 3 1 0 0 2 4 181 176 175 165 
10 1 1 0 0 3 4 182 180 168 166 
1 2 4 0 0 4 5 184 180 171 170 168 
6 3 2 0 0 3 5 181 180 175 174 171 
1 5 3 0 0 2 2 180 166 
1 1 3 0 0 3 3 183 174 171 
5 3 2 0 0 4 2 175 169 
1 1 1 0 0 4 3 181 174 172 
5 1 2 0 0 4 1 171 
9 3 3 0 0 5 2 181 173 
3 2 5 0 0 2 1 172 
7 3 1 0 0 1 1 173 
3 3 4 0 0 2 1 178 
3 1 3 0 0 3 1 179 
3 3 2 0 0 1 1 182 
4 4 1 0 0 1 2 182 386 
6 2 1 0 0 1 1 180 
1 1 8 0 0 3 1 187 
2 2 2 0 0 1 1 187 
8 6 4 0 0 2 1 187 
2 3 1 0 0 2 1 187 
5 4 5 0 0 1 1 187 
10 4 1 0 0 4 1 187 
7 2 1 0 0 4 1 187 
1 2 3 0 0 3 1 187 
9 3 3 0 0 2 1 187 
0 0 0 0 0 0 1 424 
0 0 0 0 0 0 6 189 190 191 192 193 196 
1 0 1 1 1 0 4 203 197 195 194 
7 0 2 2 2 0 5 206 204 203 197 194 
1 0 3 5 1 0 4 204 203 197 194 
2 0 1 2 1 0 2 195 194 
9 0 4 4 1 0 4 199 198 195 327 
2 0 3 4 1 0 4 202 201 200 198 
6 0 2 1 2 0 4 206 204 201 200 
10 0 3 5 5 0 4 204 202 200 198 
7 0 3 1 2 0 1 199 
8 0 3 5 3 0 3 208 207 205 
10 0 3 2 2 0 3 208 207 205 
4 0 4 3 5 0 2 208 205 
10 0 2 1 5 0 2 208 205 
1 0 2 3 1 0 2 207 205 
6 0 2 4 2 0 2 208 205 
8 0 5 1 5 0 1 205 
5 0 1 2 3 0 4 218 217 210 209 
3 0 3 2 4 0 2 209 207 
2 0 2 1 3 0 5 218 217 213 212 211 
9 0 4 1 5 0 3 217 211 209 
4 0 1 2 2 0 2 216 213 
8 0 1 2 1 0 2 212 211 
2 0 2 3 2 0 2 216 215 
3 0 2 2 2 0 2 216 215 
9 0 3 4 2 0 1 214 
9 0 4 3 3 0 1 215 
3 0 2 2 2 0 1 219 
5 0 3 2 4 0 1 219 
2 0 2 3 1 0 1 219 
9 0 2 2 2 0 1 219 
0 0 0 0 0 0 1 424 
0 0 0 0 0 0 3 221 223 224 
5 0 0 1 0 0 3 230 225 222 
1 0 0 3 0 0 3 228 227 226 
4 0 0 3 0 0 3 229 228 226 
7 0 0 3 0 0 2 227 226 
9 0 0 4 0 0 2 226 372 
1 0 0 4 0 0 1 231 
9 0 0 1 0 0 1 231 
5 0 0 2 0 0 1 231 
10 0 0 3 0 0 1 231 
2 0 0 1 0 0 1 231 
0 0 0 0 0 0 5 264 276 298 320 342 
0 0 0 0 0 0 6 233 234 235 236 241 262 
4 0 1 0 1 1 4 244 239 238 237 
7 0 2 0 3 2 5 251 250 244 243 240 
6 0 4 0 2 1 6 261 258 255 252 251 239 
7 0 1 0 4 2 5 260 256 251 243 240 
6 0 2 0 2 3 4 255 252 250 240 
10 0 1 0 5 1 3 257 245 242 
4 0 3 0 2 2 4 257 250 249 246 
4 0 3 0 2 3 2 257 242 
2 0 2 0 2 1 4 259 245 244 396 
5 0 2 0 6 2 3 258 249 246 
9 0 3 0 4 3 1 246 
7 0 2 0 2 2 2 255 248 
8 0 3 0 2 6 2 255 249 
10 0 8 0 3 2 1 247 
2 0 3 0 4 3 1 248 
3 0 3 0 1 4 1 253 
7 0 2 0 4 4 1 254 
1 0 4 0 2 2 1 256 
3 0 2 0 1 3 1 253 
5 0 4 0 2 6 1 256 
8 0 2 0 4 3 1 263 
2 0 2 0 2 3 1 263 
3 0 3 0 2 3 1 263 
8 0 2 0 3 2 1 263 
5 0 1 0 3 3 1 263 
5 0 1 0 2 2 1 263 
10 0 1 0 1 1 1 263 
5 0 3 0 1 1 1 263 
3 0 3 0 2 2 1 263 
5 0 2 0 1 2 1 263 
0 0 0 0 0 0 1 424 
0 0 0 0 0 0 5 265 267 268 273 274 
3 0 0 0 0 1 2 272 266 
2 0 0 0 0 4 3 270 269 296 
5 0 0 0 0 3 2 271 269 
1 0 0 0 0 3 1 269 
6 0 0 0 0 2 1 275 
3 0 0 0 0 1 1 275 
8 0 0 0 0 4 1 275 
5 0 0 0 0 4 1 275 
3 0 0 0 0 2 1 275 
5 0 0 0 0 1 1 275 
0 0 0 0 0 0 5 364 376 388 400 412 
0 0 0 0 0 0 6 277 279 281 284 288 296 
6 0 0 1 1 0 3 285 278 360 
3 0 0 2 2 0 4 294 293 287 280 
1 0 0 2 4 0 3 293 285 280 
1 0 0 3 1 0 3 295 289 283 
5 0 0 3 1 0 2 286 282 
8 0 0 1 5 0 3 294 290 287 
4 0 0 2 5 0 3 292 291 290 
3 0 0 1 1 0 2 293 286 
3 0 0 5 1 0 1 286 
9 0 0 3 3 0 1 289 
7 0 0 3 3 0 1 289 
3 0 0 4 2 0 1 290 
1 0 0 1 3 0 1 297 
8 0 0 3 2 0 1 297 
7 0 0 5 2 0 1 297 
8 0 0 1 2 0 1 297 
6 0 0 5 4 0 1 297 
8 0 0 2 3 0 1 297 
10 0 0 2 2 0 1 297 
9 0 0 1 3 0 1 297 
0 0 0 0 0 0 1 424 
0 0 0 0 0 0 6 299 300 301 302 303 304 
5 0 1 0 1 0 5 317 312 309 306 305 
2 0 2 0 2 0 4 318 317 306 305 
9 0 3 0 4 0 6 318 317 316 315 311 308 
6 0 1 0 2 0 6 318 317 316 315 311 308 
3 0 1 0 2 0 3 318 317 305 
7 0 6 0 2 0 3 317 315 307 
4 0 1 0 2 0 5 316 315 314 311 310 
4 0 3 0 3 0 3 316 315 308 
9 0 3 0 2 0 3 314 311 310 
8 0 5 0 2 0 2 314 310 
9 0 2 0 4 0 2 314 310 
7 0 1 0 2 0 1 313 
8 0 2 0 2 0 1 313 
1 0 4 0 3 0 2 313 380 
5 0 3 0 4 0 1 319 
3 0 3 0 3 0 1 319 
10 0 2 0 2 0 1 319 
8 0 4 0 4 0 1 319 
7 0 1 0 2 0 1 319 
8 0 2 0 2 0 1 319 
0 0 0 0 0 0 1 424 
0 0 0 0 0 0 13 321 322 323 326 332 333 334 335 336 337 338 339 340 
7 0 0 0 1 1 2 331 325 
4 0 0 0 3 1 1 324 
2 0 0 0 2 2 3 330 329 328 
3 0 0 0 1 1 1 325 
2 0 0 0 4 2 1 327 
7 0 0 0 3 6 1 327 
1 0 0 0 1 5 1 328 
7 0 0 0 1 2 1 341 
1 0 0 0 1 5 1 341 
1 0 0 0 2 3 1 341 
3 0 0 0 2 3 1 341 
4 0 0 0 2 2 1 341 
6 0 0 0 3 3 1 341 
9 0 0 0 3 2 1 341 
1 0 0 0 4 1 1 341 
3 0 0 0 2 3 1 341 
5 0 0 0 3 1 2 341 365 
1 0 0 0 5 3 1 341 
10 0 0 0 3 1 1 341 
5 0 0 0 4 3 1 341 
0 0 0 0 0 0 1 424 
0 0 0 0 0 0 6 343 344 346 347 348 351 
5 0 0 1 0 1 3 362 350 345 
10 0 0 2 0 3 4 359 354 350 349 
5 0 0 3 0 1 4 361 359 357 349 
6 0 0 1 0 2 4 361 359 353 350 
7 0 0 3 0 3 3 360 357 349 
7 0 0 2 0 3 3 359 356 350 
1 0 0 3 0 2 3 358 353 352 
2 0 0 5 0 6 3 360 357 352 
2 0 0 2 0 1 2 359 354 
4 0 0 5 0 3 2 355 418 
6 0 0 2 0 1 1 356 
3 0 0 3 0 3 1 358 
10 0 0 1 0 4 1 363 
10 0 0 3 0 3 1 363 
1 0 0 4 0 1 1 363 
10 0 0 4 0 2 1 363 
6 0 0 1 0 4 1 363 
3 0 0 1 0 2 1 363 
5 0 0 2 0 3 1 363 
10 0 0 2 0 2 1 363 
0 0 0 0 0 0 1 424 
0 0 0 0 0 0 6 365 368 369 370 373 374 
8 0 0 0 1 0 2 367 366 
7 0 0 0 3 0 2 372 371 
9 0 0 0 3 0 2 372 371 
6 0 0 0 3 0 1 371 
6 0 0 0 4 0 1 371 
5 0 0 0 2 0 1 371 
9 0 0 0 1 0 1 375 
2 0 0 0 3 0 2 375 381 
2 0 0 0 2 0 1 375 
6 0 0 0 3 0 1 375 
0 0 0 0 0 0 1 424 
0 0 0 0 0 0 5 377 380 381 385 386 
6 0 1 0 0 0 3 384 379 378 
4 0 2 0 0 0 2 383 382 
2 0 1 0 0 0 2 382 403 
10 0 3 0 0 0 1 382 
1 0 3 0 0 0 1 382 
6 0 2 0 0 0 1 387 
7 0 4 0 0 0 1 387 
9 0 3 0 0 0 1 387 
3 0 4 0 0 0 1 387 
1 0 2 0 0 0 1 387 
0 0 0 0 0 0 1 424 
0 0 0 0 0 0 4 389 390 392 393 
9 0 0 0 0 1 3 398 394 391 
10 0 0 0 0 1 3 397 395 394 
10 0 0 0 0 3 1 395 
6 0 0 0 0 3 1 396 
4 0 0 0 0 4 1 394 
7 0 0 0 0 5 1 399 
1 0 0 0 0 2 2 399 419 
2 0 0 0 0 1 1 399 
1 0 0 0 0 1 1 399 
9 0 0 0 0 4 1 399 
0 0 0 0 0 0 1 424 
0 0 0 0 0 0 5 401 402 403 404 410 
7 1 0 0 0 0 4 409 408 407 406 
2 1 0 0 0 0 3 408 406 405 
1 1 0 0 0 0 2 408 406 
9 2 0 0 0 0 2 407 406 
5 2 0 0 0 0 2 407 420 
6 6 0 0 0 0 1 411 
10 2 0 0 0 0 1 411 
7 4 0 0 0 0 1 411 
7 3 0 0 0 0 1 411 
1 3 0 0 0 0 1 411 
0 0 0 0 0 0 1 424 
0 0 0 0 0 0 3 413 415 416 
9 0 0 0 0 1 3 419 417 414 
8 0 0 0 0 4 4 422 421 420 418 
4 0 0 0 0 2 3 421 419 418 
3 0 0 0 0 5 3 420 419 418 
6 0 0 0 0 3 1 418 
10 0 0 0 0 1 1 423 
5 0 0 0 0 3 1 423 
9 0 0 0 0 1 1 423 
8 0 0 0 0 2 1 423 
6 0 0 0 0 3 1 423 
0 0 0 0 0 0 1 424 
0 0 0 0 0 0 0 
